400
150 150
1 105 160
2 104 215
3 104 185
4 104 835
5 104 151
6 104 965
7 104 792
8 103 12
9 103 757
10 102 131
11 102 555
12 102 371
13 102 540
14 102 477
15 101 613
16 101 674
17 101 761
18 101 936
19 101 22
20 101 757
21 101 32
22 101 974
23 101 794
24 101 773
25 100 576
26 100 669
27 99 820
28 99 556
29 99 35
30 99 785
31 98 953
32 98 365
33 98 306
34 98 917
35 97 771
36 97 385
37 97 208
38 97 661
39 97 972
40 97 579
41 97 477
42 96 746
43 96 315
44 96 95
45 96 187
46 95 870
47 95 362
48 95 281
49 95 319
50 95 365
51 94 45
52 94 756
53 94 986
54 94 897
55 93 80
56 93 81
57 93 178
58 93 369
59 93 548
60 92 395
61 92 479
62 92 390
63 92 394
64 92 548
65 92 850
66 92 393
67 92 267
68 91 444
69 91 936
70 91 961
71 91 752
72 91 958
73 91 983
74 90 364
75 90 974
76 90 382
77 89 573
78 89 221
79 89 839
80 89 753
81 88 21
82 88 592
83 88 283
84 88 384
85 88 120
86 87 921
87 87 15
88 87 504
89 87 757
90 86 937
91 86 949
92 86 884
93 86 227
94 85 623
95 85 660
96 85 365
97 85 856
98 84 9
99 84 630
100 84 741
101 84 600
102 84 117
103 83 820
104 83 511
105 83 708
106 83 250
107 82 221
108 82 258
109 81 563
110 81 504
111 80 438
112 80 125
113 80 160
114 80 993
115 79 512
116 79 833
117 79 304
118 79 18
119 78 201
120 78 644
121 78 592
122 78 687
123 78 792
124 78 147
125 77 765
126 77 197
127 76 852
128 76 135
129 76 241
130 75 225
131 75 79
132 75 209
133 75 595
134 75 46
135 75 636
136 75 458
137 74 430
138 74 900
139 74 825
140 74 780
141 74 979
142 74 708
143 73 516
144 73 479
145 73 393
146 72 356
147 72 288
148 72 997
149 72 741
150 72 563
151 71 506
152 71 824
153 71 202
154 71 335
155 71 253
156 71 928
157 71 502
158 70 127
159 70 424
160 69 905
161 69 455
162 69 704
163 69 876
164 69 484
165 69 976
166 69 484
167 68 268
168 68 294
169 68 150
170 68 731
171 68 257
172 68 464
173 68 283
174 67 47
175 67 166
176 66 915
177 66 136
178 66 209
179 66 404
180 66 404
181 65 941
182 65 680
183 65 317
184 65 827
185 65 295
186 64 908
187 64 42
188 64 965
189 64 359
190 63 146
191 63 805
192 62 811
193 62 623
194 62 624
195 62 673
196 62 371
197 62 907
198 61 402
199 61 369
200 61 306
201 61 387
202 61 650
203 60 665
204 60 473
205 60 166
206 60 543
207 59 589
208 59 266
209 59 766
210 59 227
211 59 438
212 59 448
213 59 168
214 59 217
215 58 935
216 58 91
217 58 990
218 58 550
219 57 453
220 57 747
221 57 81
222 57 965
223 57 376
224 57 735
225 57 308
226 56 682
227 56 583
228 56 913
229 56 462
230 56 767
231 56 871
232 55 766
233 55 475
234 55 154
235 55 777
236 54 427
237 54 285
238 54 22
239 54 756
240 54 424
241 53 18
242 52 323
243 52 444
244 52 711
245 52 5
246 52 327
247 51 797
248 51 85
249 51 785
250 51 196
251 50 512
252 50 480
253 50 461
254 50 762
255 49 988
256 49 915
257 49 184
258 49 881
259 49 136
260 48 935
261 48 427
262 48 585
263 48 305
264 47 396
265 47 516
266 47 45
267 47 388
268 47 420
269 46 196
270 46 983
271 46 496
272 46 492
273 46 646
274 46 3
275 45 44
276 45 829
277 44 441
278 44 451
279 44 460
280 43 358
281 43 955
282 42 178
283 42 645
284 41 630
285 41 932
286 41 351
287 40 973
288 40 89
289 40 654
290 40 384
291 39 636
292 39 807
293 39 254
294 38 664
295 38 199
296 38 410
297 38 187
298 38 494
299 37 338
300 37 501
301 37 240
302 37 191
303 37 264
304 37 420
305 37 7
306 36 611
307 36 4
308 36 885
309 36 349
310 35 432
311 35 506
312 34 531
313 34 236
314 34 130
315 33 206
316 33 696
317 33 572
318 33 31
319 33 514
320 33 261
321 32 417
322 32 289
323 32 879
324 32 548
325 32 666
326 32 744
327 32 40
328 32 377
329 31 880
330 31 147
331 31 225
332 31 754
333 30 351
334 30 533
335 30 35
336 30 515
337 30 945
338 30 492
339 30 460
340 30 183
341 29 830
342 29 516
343 29 570
344 29 484
345 29 993
346 28 237
347 28 600
348 28 845
349 27 695
350 27 26
351 26 871
352 26 136
353 26 653
354 26 546
355 25 51
356 25 544
357 25 991
358 25 304
359 24 774
360 24 991
361 24 398
362 23 139
363 23 727
364 23 681
365 23 162
366 23 90
367 23 495
368 22 939
369 22 167
370 22 884
371 22 358
372 21 631
373 21 837
374 21 362
375 21 499
376 21 597
377 21 887
378 21 765
379 20 63
380 20 71
381 20 876
382 20 979
383 20 787
384 20 587
385 19 397
386 18 439
387 18 201
388 18 820
389 18 625
390 18 312
391 17 294
392 17 39
393 16 192
394 16 110
395 16 465
396 16 774
397 16 740
398 16 289
399 16 233
400 15 694
